(benchmark gametime
:status unknown
:logic QF_AUFBV
:extrafuns ((gtINDEX62  BitVec[32]))
:extrafuns ((gtFIELD__bitsForTID0__gtAGG____anonstruct_D_Work_4  Array[32:32]))
:extrafuns ((gtINDEX63  BitVec[32]))
:extrafuns ((gtAGG__rtDWork  BitVec[32]))
:extrafuns ((gtINDEX60  BitVec[32]))
:extrafuns ((gtINDEX61  BitVec[32]))
:extrafuns ((gtINDEX58  BitVec[32]))
:extrafuns ((gtINDEX59  BitVec[32]))
:extrafuns ((gtINDEX56  BitVec[32]))
:extrafuns ((gtINDEX57  BitVec[32]))
:extrafuns ((gtINDEX55  BitVec[32]))
:extrafuns ((gtINDEX54  BitVec[32]))
:extrafuns ((gtINDEX53  BitVec[32]))
:extrafuns ((gtINDEX52  BitVec[32]))
:extrafuns ((gtINDEX50  BitVec[32]))
:extrafuns ((gtINDEX51  BitVec[32]))
:extrafuns ((gtINDEX48  BitVec[32]))
:extrafuns ((gtINDEX49  BitVec[32]))
:extrafuns ((gtINDEX46  BitVec[32]))
:extrafuns ((gtINDEX47  BitVec[32]))
:extrafuns ((gtINDEX44  BitVec[32]))
:extrafuns ((gtINDEX45  BitVec[32]))
:extrafuns ((gtINDEX43  BitVec[32]))
:extrafuns ((gtINDEX41  BitVec[32]))
:extrafuns ((gtINDEX42  BitVec[32]))
:extrafuns ((gtINDEX39  BitVec[32]))
:extrafuns ((gtINDEX40  BitVec[32]))
:extrafuns ((gtINDEX37  BitVec[32]))
:extrafuns ((gtINDEX38  BitVec[32]))
:extrafuns ((gtINDEX35  BitVec[32]))
:extrafuns ((gtINDEX36  BitVec[32]))
:extrafuns ((gtINDEX34  BitVec[32]))
:extrafuns ((gtINDEX32  BitVec[32]))
:extrafuns ((gtINDEX33  BitVec[32]))
:extrafuns ((gtINDEX31  BitVec[32]))
:extrafuns ((gtINDEX29  BitVec[32]))
:extrafuns ((gtINDEX30  BitVec[32]))
:extrafuns ((gtINDEX27  BitVec[32]))
:extrafuns ((gtINDEX28  BitVec[32]))
:extrafuns ((gtINDEX26  BitVec[32]))
:extrafuns ((gtINDEX25  BitVec[32]))
:extrafuns ((gtINDEX24  BitVec[32]))
:extrafuns ((gtINDEX23  BitVec[32]))
:extrafuns ((gtINDEX22  BitVec[32]))
:extrafuns ((gtINDEX20  BitVec[32]))
:extrafuns ((gtINDEX21  BitVec[32]))
:extrafuns ((gtINDEX18  BitVec[32]))
:extrafuns ((gtINDEX19  BitVec[32]))
:extrafuns ((gtINDEX16  BitVec[32]))
:extrafuns ((gtINDEX17  BitVec[32]))
:extrafuns ((gtINDEX14  BitVec[32]))
:extrafuns ((gtINDEX15  BitVec[32]))
:extrafuns ((gtINDEX13  BitVec[32]))
:extrafuns ((gtINDEX11  BitVec[32]))
:extrafuns ((gtINDEX12  BitVec[32]))
:extrafuns ((gtINDEX10  BitVec[32]))
:extrafuns ((gtINDEX8  BitVec[32]))
:extrafuns ((gtINDEX9  BitVec[32]))
:extrafuns ((gtINDEX6  BitVec[32]))
:extrafuns ((gtINDEX7  BitVec[32]))
:extrafuns ((gtINDEX4  BitVec[32]))
:extrafuns ((gtINDEX5  BitVec[32]))
:extrafuns ((gtINDEX2  BitVec[32]))
:extrafuns ((gtINDEX3  BitVec[32]))
:extrafuns ((gtINDEX0  BitVec[32]))
:extrafuns ((gtINDEX1  BitVec[32]))
:extrafuns ((gtFIELD__is_Eng__gtAGG____anonstruct_bitsForTID0_5_1_  Array[32:1]))
:extrafuns ((gtFIELD__is_Eng__gtAGG____anonstruct_bitsForTID0_5_2_  Array[32:1]))
:extrafuns ((sf_previousEvent_1_  BitVec[32]))
:extrafuns ((sfEvent__2_  BitVec[32]))
:extrafuns ((gtFIELD__is_Eng__gtAGG____anonstruct_bitsForTID0_5  Array[32:1]))
:extrafuns ((gtFIELD__sent__gtAGG____anonstruct_D_Work_4_1_  Array[32:32]))
:extrafuns ((gtFIELD__sent__gtAGG____anonstruct_D_Work_4_2_  Array[32:32]))
:extrafuns ((gtFIELD__is_active_Eng__gtAGG____anonstruct_bitsForTID0_5  Array[32:1]))
:extrafuns ((gtFIELD__is_active_PURI__gtAGG____anonstruct_bitsForTID0_5  Array[32:1]))
:extrafuns ((gtFIELD__is_active_PVRP__gtAGG____anonstruct_bitsForTID0_5  Array[32:1]))
:extrafuns ((gtFIELD__is_PPVARP__gtAGG____anonstruct_bitsForTID0_5_1_  Array[32:2]))
:extrafuns ((gtFIELD__is_active_PPVARP__gtAGG____anonstruct_bitsForTID0_5  Array[32:1]))
:extrafuns ((gtFIELD__is_active_PLRI__gtAGG____anonstruct_bitsForTID0_5  Array[32:1]))
:extrafuns ((gtFIELD__temporalCounter_i1__gtAGG____anonstruct_D_Work_4  Array[32:32]))
:extrafuns ((gtFIELD__temporalCounter_i1__gtAGG____anonstruct_D_Work_4_1_  Array[32:32]))
:extrafuns ((gtFIELD__is_PAVI__gtAGG____anonstruct_bitsForTID0_5  Array[32:3]))
:extrafuns ((gtFIELD__is_PAVI__gtAGG____anonstruct_bitsForTID0_5_1_  Array[32:3]))
:extrafuns ((gtFIELD__n_t__gtAGG____anonstruct_D_Work_4  Array[32:32]))
:extrafuns ((gtFIELD__n_t__gtAGG____anonstruct_D_Work_4_1_  Array[32:32]))
:extrafuns ((sfEvent__1_  BitVec[32]))
:extrafuns ((gtFIELD__is_active_PAVI__gtAGG____anonstruct_bitsForTID0_5  Array[32:1]))
:extrafuns ((sfEvent_  BitVec[32]))
:extrafuns ((gtFIELD__sent__gtAGG____anonstruct_D_Work_4  Array[32:32]))
:extrafuns ((gtFIELD__temporalCounter_i3__gtAGG____anonstruct_D_Work_4  Array[32:32]))
:extrafuns ((gtFIELD__temporalCounter_i3__gtAGG____anonstruct_D_Work_4_1_  Array[32:32]))
:extrafuns ((gtFIELD__is_PPVARP__gtAGG____anonstruct_bitsForTID0_5  Array[32:2]))
:extrafuns ((gtFIELD__n_t_b__gtAGG____anonstruct_D_Work_4  Array[32:32]))
:extrafuns ((gtFIELD__n_t_b__gtAGG____anonstruct_D_Work_4_1_  Array[32:32]))
:extrapreds ((constraint111 ))
:extrapreds ((constraint110 ))
:extrapreds ((constraint109 ))
:extrapreds ((constraint108 ))
:extrapreds ((constraint107 ))
:extrapreds ((constraint106 ))
:extrapreds ((constraint105 ))
:extrapreds ((constraint104 ))
:extrapreds ((constraint103 ))
:extrapreds ((constraint102 ))
:extrapreds ((constraint101 ))
:extrapreds ((constraint100 ))
:extrapreds ((constraint99 ))
:extrapreds ((constraint98 ))
:extrapreds ((constraint97 ))
:extrapreds ((constraint96 ))
:extrapreds ((constraint95 ))
:extrapreds ((constraint94 ))
:extrapreds ((constraint93 ))
:extrapreds ((constraint92 ))
:extrapreds ((constraint91 ))
:extrapreds ((constraint90 ))
:extrapreds ((constraint89 ))
:extrapreds ((constraint88 ))
:extrapreds ((constraint87 ))
:extrapreds ((constraint86 ))
:extrapreds ((constraint85 ))
:extrapreds ((constraint84 ))
:extrapreds ((constraint83 ))
:extrapreds ((constraint82 ))
:extrapreds ((constraint81 ))
:extrapreds ((constraint80 ))
:extrapreds ((constraint79 ))
:extrapreds ((constraint78 ))
:extrapreds ((constraint77 ))
:extrapreds ((constraint76 ))
:extrapreds ((constraint75 ))
:extrapreds ((constraint74 ))
:extrapreds ((constraint73 ))
:extrapreds ((constraint72 ))
:extrapreds ((constraint71 ))
:extrapreds ((constraint70 ))
:extrapreds ((constraint69 ))
:extrapreds ((constraint68 ))
:extrapreds ((constraint67 ))
:extrapreds ((constraint66 ))
:extrapreds ((constraint65 ))
:extrapreds ((constraint64 ))
:extrapreds ((constraint63 ))
:extrapreds ((constraint62 ))
:extrapreds ((constraint61 ))
:extrapreds ((constraint60 ))
:extrapreds ((constraint59 ))
:extrapreds ((constraint58 ))
:extrapreds ((constraint57 ))
:extrapreds ((constraint56 ))
:extrapreds ((constraint55 ))
:extrapreds ((constraint54 ))
:extrapreds ((constraint53 ))
:extrapreds ((constraint52 ))
:extrapreds ((constraint51 ))
:extrapreds ((constraint50 ))
:extrapreds ((constraint49 ))
:extrapreds ((constraint48 ))
:extrapreds ((constraint47 ))
:extrapreds ((constraint46 ))
:extrapreds ((constraint45 ))
:extrapreds ((constraint44 ))
:extrapreds ((constraint43 ))
:extrapreds ((constraint42 ))
:extrapreds ((constraint41 ))
:extrapreds ((constraint40 ))
:extrapreds ((constraint39 ))
:extrapreds ((constraint38 ))
:extrapreds ((constraint37 ))
:extrapreds ((constraint36 ))
:extrapreds ((constraint35 ))
:extrapreds ((constraint34 ))
:extrapreds ((constraint33 ))
:extrapreds ((constraint32 ))
:extrapreds ((constraint31 ))
:extrapreds ((constraint30 ))
:extrapreds ((constraint29 ))
:extrapreds ((constraint28 ))
:extrapreds ((constraint27 ))
:extrapreds ((constraint26 ))
:extrapreds ((constraint25 ))
:extrapreds ((constraint24 ))
:extrapreds ((constraint23 ))
:extrapreds ((constraint22 ))
:extrapreds ((constraint21 ))
:extrapreds ((constraint20 ))
:extrapreds ((constraint19 ))
:extrapreds ((constraint18 ))
:extrapreds ((constraint17 ))
:extrapreds ((constraint16 ))
:extrapreds ((constraint15 ))
:extrapreds ((constraint14 ))
:extrapreds ((constraint13 ))
:extrapreds ((constraint12 ))
:extrapreds ((constraint11 ))
:extrapreds ((constraint10 ))
:extrapreds ((constraint9 ))
:extrapreds ((constraint8 ))
:extrapreds ((constraint7 ))
:extrapreds ((constraint6 ))
:extrapreds ((constraint5 ))
:extrapreds ((constraint4 ))
:extrapreds ((constraint3 ))
:extrapreds ((constraint2 ))
:extrapreds ((constraint1 ))
:extrapreds ((constraint0 ))
:formula
(flet ($x578 (and constraint0 constraint1 constraint2 constraint3 constraint4 constraint5 constraint6 constraint7 constraint8 constraint9 constraint10 constraint11 constraint12 constraint13 constraint14 constraint15 constraint16 constraint17 constraint18 constraint19 constraint20 constraint21 constraint22 constraint23 constraint24 constraint25 constraint26 constraint27 constraint28 constraint29 constraint30 constraint31 constraint32 constraint33 constraint34 constraint35 constraint36 constraint37 constraint38 constraint39 constraint40 constraint41 constraint42 constraint43 constraint44 constraint45 constraint46 constraint47 constraint48 constraint49 constraint50 constraint51 constraint52 constraint53 constraint54 constraint55 constraint56 constraint57 constraint58 constraint59 constraint60 constraint61 constraint62 constraint63 constraint64 constraint65 constraint66 constraint67 constraint68 constraint69 constraint70 constraint71 constraint72 constraint73 constraint74 constraint75 constraint76 constraint77 constraint78 constraint79 constraint80 constraint81 constraint82 constraint83 constraint84 constraint85 constraint86 constraint87 constraint88 constraint89 constraint90 constraint91 constraint92 constraint93 constraint94 constraint95 constraint96 constraint97 constraint98 constraint99 constraint100 constraint101 constraint102 constraint103 constraint104 constraint105 constraint106 constraint107 constraint108 constraint109 constraint110 constraint111))
(flet ($x352 (= gtINDEX63 (select gtFIELD__bitsForTID0__gtAGG____anonstruct_D_Work_4 gtINDEX62)))
(flet ($x348 (= gtINDEX61 (select gtFIELD__bitsForTID0__gtAGG____anonstruct_D_Work_4 gtINDEX60)))
(flet ($x344 (= gtINDEX59 (select gtFIELD__bitsForTID0__gtAGG____anonstruct_D_Work_4 gtINDEX58)))
(flet ($x340 (= gtINDEX57 (select gtFIELD__bitsForTID0__gtAGG____anonstruct_D_Work_4 gtINDEX56)))
(flet ($x332 (= gtINDEX51 (select gtFIELD__bitsForTID0__gtAGG____anonstruct_D_Work_4 gtINDEX50)))
(flet ($x328 (= gtINDEX49 (select gtFIELD__bitsForTID0__gtAGG____anonstruct_D_Work_4 gtINDEX48)))
(flet ($x324 (= gtINDEX47 (select gtFIELD__bitsForTID0__gtAGG____anonstruct_D_Work_4 gtINDEX46)))
(flet ($x320 (= gtINDEX45 (select gtFIELD__bitsForTID0__gtAGG____anonstruct_D_Work_4 gtINDEX44)))
(flet ($x315 (= gtINDEX42 (select gtFIELD__bitsForTID0__gtAGG____anonstruct_D_Work_4 gtINDEX41)))
(flet ($x311 (= gtINDEX40 (select gtFIELD__bitsForTID0__gtAGG____anonstruct_D_Work_4 gtINDEX39)))
(flet ($x307 (= gtINDEX38 (select gtFIELD__bitsForTID0__gtAGG____anonstruct_D_Work_4 gtINDEX37)))
(flet ($x303 (= gtINDEX36 (select gtFIELD__bitsForTID0__gtAGG____anonstruct_D_Work_4 gtINDEX35)))
(flet ($x298 (= gtINDEX33 (select gtFIELD__bitsForTID0__gtAGG____anonstruct_D_Work_4 gtINDEX32)))
(flet ($x293 (= gtINDEX30 (select gtFIELD__bitsForTID0__gtAGG____anonstruct_D_Work_4 gtINDEX29)))
(flet ($x289 (= gtINDEX28 (select gtFIELD__bitsForTID0__gtAGG____anonstruct_D_Work_4 gtINDEX27)))
(flet ($x280 (= gtINDEX21 (select gtFIELD__bitsForTID0__gtAGG____anonstruct_D_Work_4 gtINDEX20)))
(flet ($x276 (= gtINDEX19 (select gtFIELD__bitsForTID0__gtAGG____anonstruct_D_Work_4 gtINDEX18)))
(flet ($x272 (= gtINDEX17 (select gtFIELD__bitsForTID0__gtAGG____anonstruct_D_Work_4 gtINDEX16)))
(flet ($x268 (= gtINDEX15 (select gtFIELD__bitsForTID0__gtAGG____anonstruct_D_Work_4 gtINDEX14)))
(flet ($x263 (= gtINDEX12 (select gtFIELD__bitsForTID0__gtAGG____anonstruct_D_Work_4 gtINDEX11)))
(flet ($x258 (= gtINDEX9 (select gtFIELD__bitsForTID0__gtAGG____anonstruct_D_Work_4 gtINDEX8)))
(flet ($x254 (= gtINDEX7 (select gtFIELD__bitsForTID0__gtAGG____anonstruct_D_Work_4 gtINDEX6)))
(flet ($x250 (= gtINDEX5 (select gtFIELD__bitsForTID0__gtAGG____anonstruct_D_Work_4 gtINDEX4)))
(flet ($x246 (= gtINDEX3 (select gtFIELD__bitsForTID0__gtAGG____anonstruct_D_Work_4 gtINDEX2)))
(flet ($x242 (= gtINDEX1 (select gtFIELD__bitsForTID0__gtAGG____anonstruct_D_Work_4 gtINDEX0)))
(let (?x226 (extract[0:0] bv1[32]))
(let (?x236 (store gtFIELD__is_Eng__gtAGG____anonstruct_bitsForTID0_5_1_ gtINDEX63 ?x226))
(flet ($x448 (iff constraint47 (= gtFIELD__is_Eng__gtAGG____anonstruct_bitsForTID0_5_2_ ?x236)))
(let (?x232 (select gtFIELD__is_Eng__gtAGG____anonstruct_bitsForTID0_5_1_ gtINDEX61))
(let (?x227 (store gtFIELD__is_Eng__gtAGG____anonstruct_bitsForTID0_5 gtINDEX59 ?x226))
(flet ($x442 (iff constraint44 (= gtFIELD__is_Eng__gtAGG____anonstruct_bitsForTID0_5_1_ ?x227)))
(let (?x223 (zero_extend[31] (select gtFIELD__is_Eng__gtAGG____anonstruct_bitsForTID0_5 gtINDEX57)))
(let (?x219 (store gtFIELD__sent__gtAGG____anonstruct_D_Work_4_1_ gtINDEX55 bv0[32]))
(flet ($x438 (iff constraint42 (= gtFIELD__sent__gtAGG____anonstruct_D_Work_4_2_ ?x219)))
(let (?x128 (bvmul bv4294967295[32] bv1[32]))
(flet ($x217 (= (select gtFIELD__sent__gtAGG____anonstruct_D_Work_4_1_ gtINDEX54) ?x128))
(flet ($x213 (= (select gtFIELD__sent__gtAGG____anonstruct_D_Work_4_1_ gtINDEX53) bv9[32]))
(flet ($x209 (= (select gtFIELD__sent__gtAGG____anonstruct_D_Work_4_1_ gtINDEX52) bv4[32]))
(let (?x205 (zero_extend[31] (select gtFIELD__is_Eng__gtAGG____anonstruct_bitsForTID0_5 gtINDEX51)))
(let (?x199 (select gtFIELD__is_active_Eng__gtAGG____anonstruct_bitsForTID0_5 gtINDEX49))
(let (?x193 (select gtFIELD__is_active_PURI__gtAGG____anonstruct_bitsForTID0_5 gtINDEX47))
(let (?x187 (select gtFIELD__is_active_PVRP__gtAGG____anonstruct_bitsForTID0_5 gtINDEX45))
(flet ($x184 (= (select gtFIELD__sent__gtAGG____anonstruct_D_Work_4_1_ gtINDEX43) bv0[32]))
(let (?x179 (select gtFIELD__is_PPVARP__gtAGG____anonstruct_bitsForTID0_5_1_ gtINDEX42))
(let (?x174 (select gtFIELD__is_PPVARP__gtAGG____anonstruct_bitsForTID0_5_1_ gtINDEX40))
(let (?x169 (select gtFIELD__is_active_PPVARP__gtAGG____anonstruct_bitsForTID0_5 gtINDEX38))
(let (?x163 (select gtFIELD__is_active_PLRI__gtAGG____anonstruct_bitsForTID0_5 gtINDEX36))
(let (?x160 (store gtFIELD__temporalCounter_i1__gtAGG____anonstruct_D_Work_4 gtINDEX34 bv0[32]))
(flet ($x412 (iff constraint29 (= gtFIELD__temporalCounter_i1__gtAGG____anonstruct_D_Work_4_1_ ?x160)))
(let (?x157 (store gtFIELD__is_PAVI__gtAGG____anonstruct_bitsForTID0_5 gtINDEX33 (extract[2:0] bv2[32])))
(flet ($x410 (iff constraint28 (= gtFIELD__is_PAVI__gtAGG____anonstruct_bitsForTID0_5_1_ ?x157)))
(flet ($x154 (= gtFIELD__n_t__gtAGG____anonstruct_D_Work_4_1_ (store gtFIELD__n_t__gtAGG____anonstruct_D_Work_4 gtINDEX31 bv0[32])))
(let (?x149 (select gtFIELD__is_PAVI__gtAGG____anonstruct_bitsForTID0_5 gtINDEX30))
(let (?x144 (select gtFIELD__is_active_PAVI__gtAGG____anonstruct_bitsForTID0_5 gtINDEX28))
(flet ($x136 (= gtFIELD__sent__gtAGG____anonstruct_D_Work_4_1_ (store gtFIELD__sent__gtAGG____anonstruct_D_Work_4 gtINDEX26 ?x128)))
(flet ($x133 (= (select gtFIELD__sent__gtAGG____anonstruct_D_Work_4 gtINDEX25) bv1[32]))
(flet ($x129 (= (select gtFIELD__sent__gtAGG____anonstruct_D_Work_4 gtINDEX24) ?x128))
(flet ($x123 (= (select gtFIELD__sent__gtAGG____anonstruct_D_Work_4 gtINDEX23) bv9[32]))
(flet ($x118 (= (select gtFIELD__sent__gtAGG____anonstruct_D_Work_4 gtINDEX22) bv4[32]))
(let (?x114 (zero_extend[31] (select gtFIELD__is_Eng__gtAGG____anonstruct_bitsForTID0_5 gtINDEX21)))
(let (?x108 (select gtFIELD__is_active_Eng__gtAGG____anonstruct_bitsForTID0_5 gtINDEX19))
(let (?x102 (select gtFIELD__is_active_PURI__gtAGG____anonstruct_bitsForTID0_5 gtINDEX17))
(let (?x96 (select gtFIELD__is_active_PVRP__gtAGG____anonstruct_bitsForTID0_5 gtINDEX15))
(let (?x93 (store gtFIELD__temporalCounter_i3__gtAGG____anonstruct_D_Work_4 gtINDEX13 bv0[32]))
(flet ($x376 (iff constraint11 (= gtFIELD__temporalCounter_i3__gtAGG____anonstruct_D_Work_4_1_ ?x93)))
(let (?x90 (store gtFIELD__is_PPVARP__gtAGG____anonstruct_bitsForTID0_5 gtINDEX12 (extract[1:0] bv2[32])))
(flet ($x374 (iff constraint10 (= gtFIELD__is_PPVARP__gtAGG____anonstruct_bitsForTID0_5_1_ ?x90)))
(flet ($x87 (= gtFIELD__n_t_b__gtAGG____anonstruct_D_Work_4_1_ (store gtFIELD__n_t_b__gtAGG____anonstruct_D_Work_4 gtINDEX10 bv0[32])))
(let (?x80 (select gtFIELD__is_PPVARP__gtAGG____anonstruct_bitsForTID0_5 gtINDEX9))
(let (?x75 (select gtFIELD__is_active_PPVARP__gtAGG____anonstruct_bitsForTID0_5 gtINDEX7))
(let (?x69 (select gtFIELD__is_active_PLRI__gtAGG____anonstruct_bitsForTID0_5 gtINDEX5))
(let (?x59 (zero_extend[29] (select gtFIELD__is_PAVI__gtAGG____anonstruct_bitsForTID0_5 gtINDEX3)))
(let (?x52 (select gtFIELD__is_active_PAVI__gtAGG____anonstruct_bitsForTID0_5 gtINDEX1))
(flet ($x577 (and (iff constraint0 (not (= sfEvent_ bv8[32]))) (iff constraint1 (not (= (zero_extend[31] ?x52) bv0[32]))) (iff constraint2 (= ?x59 bv1[32])) (iff constraint3 (not (= sfEvent_ bv2[32]))) (iff constraint4 (not (= sfEvent_ bv3[32]))) (iff constraint5 (not (not (= (zero_extend[31] ?x69) bv0[32])))) (iff constraint6 (not (= (zero_extend[31] ?x75) bv0[32]))) (iff constraint7 (= (zero_extend[30] ?x80) bv1[32])) (iff constraint8 (= sfEvent_ bv4[32])) (iff constraint9 $x87) $x374 $x376 (iff constraint12 (not (not (= (zero_extend[31] ?x96) bv0[32])))) (iff constraint13 (not (not (= (zero_extend[31] ?x102) bv0[32])))) (iff constraint14 (not (= (zero_extend[31] ?x108) bv0[32]))) (iff constraint15 (= ?x114 bv1[32])) (iff constraint16 (not $x118)) (iff constraint17 (not $x123)) (iff constraint18 (not $x129)) (iff constraint19 $x133) (iff constraint20 $x136) (iff constraint21 (= sf_previousEvent_1_ sfEvent_)) (iff constraint22 (= sfEvent__1_ bv2[32])) (iff constraint23 (not (= sfEvent__1_ bv8[32]))) (iff constraint24 (not (= (zero_extend[31] ?x144) bv0[32]))) (iff constraint25 (= (zero_extend[29] ?x149) bv1[32])) (iff constraint26 (= sfEvent__1_ bv2[32])) (iff constraint27 $x154) $x410 $x412 (iff constraint30 (not (not (= (zero_extend[31] ?x163) bv0[32])))) (iff constraint31 (not (= (zero_extend[31] ?x169) bv0[32]))) (iff constraint32 (not (= (zero_extend[30] ?x174) bv1[32]))) (iff constraint33 (= (zero_extend[30] ?x179) bv2[32])) (iff constraint34 (not $x184)) (iff constraint35 (not (not (= (zero_extend[31] ?x187) bv0[32])))) (iff constraint36 (not (not (= (zero_extend[31] ?x193) bv0[32])))) (iff constraint37 (not (= (zero_extend[31] ?x199) bv0[32]))) (iff constraint38 (= ?x205 bv1[32])) (iff constraint39 (not $x209)) (iff constraint40 (not $x213)) (iff constraint41 $x217) $x438 (iff constraint43 (= ?x223 bv1[32])) $x442 (iff constraint45 (= sfEvent__2_ sf_previousEvent_1_)) (iff constraint46 (= (zero_extend[31] ?x232) bv1[32])) $x448 (iff constraint48 (= gtINDEX0 gtAGG__rtDWork)) (iff constraint49 $x242) (iff constraint50 (= gtINDEX2 gtAGG__rtDWork)) (iff constraint51 $x246) (iff constraint52 (= gtINDEX4 gtAGG__rtDWork)) (iff constraint53 $x250) (iff constraint54 (= gtINDEX6 gtAGG__rtDWork)) (iff constraint55 $x254) (iff constraint56 (= gtINDEX8 gtAGG__rtDWork)) (iff constraint57 $x258) (iff constraint58 (= gtINDEX10 gtAGG__rtDWork)) (iff constraint59 (= gtINDEX11 gtAGG__rtDWork)) (iff constraint60 $x263) (iff constraint61 (= gtINDEX13 gtAGG__rtDWork)) (iff constraint62 (= gtINDEX14 gtAGG__rtDWork)) (iff constraint63 $x268) (iff constraint64 (= gtINDEX16 gtAGG__rtDWork)) (iff constraint65 $x272) (iff constraint66 (= gtINDEX18 gtAGG__rtDWork)) (iff constraint67 $x276) (iff constraint68 (= gtINDEX20 gtAGG__rtDWork)) (iff constraint69 $x280) (iff constraint70 (= gtINDEX22 gtAGG__rtDWork)) (iff constraint71 (= gtINDEX23 gtAGG__rtDWork)) (iff constraint72 (= gtINDEX24 gtAGG__rtDWork)) (iff constraint73 (= gtINDEX25 gtAGG__rtDWork)) (iff constraint74 (= gtINDEX26 gtAGG__rtDWork)) (iff constraint75 (= gtINDEX27 gtAGG__rtDWork)) (iff constraint76 $x289) (iff constraint77 (= gtINDEX29 gtAGG__rtDWork)) (iff constraint78 $x293) (iff constraint79 (= gtINDEX31 gtAGG__rtDWork)) (iff constraint80 (= gtINDEX32 gtAGG__rtDWork)) (iff constraint81 $x298) (iff constraint82 (= gtINDEX34 gtAGG__rtDWork)) (iff constraint83 (= gtINDEX35 gtAGG__rtDWork)) (iff constraint84 $x303) (iff constraint85 (= gtINDEX37 gtAGG__rtDWork)) (iff constraint86 $x307) (iff constraint87 (= gtINDEX39 gtAGG__rtDWork)) (iff constraint88 $x311) (iff constraint89 (= gtINDEX41 gtAGG__rtDWork)) (iff constraint90 $x315) (iff constraint91 (= gtINDEX43 gtAGG__rtDWork)) (iff constraint92 (= gtINDEX44 gtAGG__rtDWork)) (iff constraint93 $x320) (iff constraint94 (= gtINDEX46 gtAGG__rtDWork)) (iff constraint95 $x324) (iff constraint96 (= gtINDEX48 gtAGG__rtDWork)) (iff constraint97 $x328) (iff constraint98 (= gtINDEX50 gtAGG__rtDWork)) (iff constraint99 $x332) (iff constraint100 (= gtINDEX52 gtAGG__rtDWork)) (iff constraint101 (= gtINDEX53 gtAGG__rtDWork)) (iff constraint102 (= gtINDEX54 gtAGG__rtDWork)) (iff constraint103 (= gtINDEX55 gtAGG__rtDWork)) (iff constraint104 (= gtINDEX56 gtAGG__rtDWork)) (iff constraint105 $x340) (iff constraint106 (= gtINDEX58 gtAGG__rtDWork)) (iff constraint107 $x344) (iff constraint108 (= gtINDEX60 gtAGG__rtDWork)) (iff constraint109 $x348) (iff constraint110 (= gtINDEX62 gtAGG__rtDWork)) (iff constraint111 $x352)))
(and $x577 $x578))))))))))))))))))))))))))))))))))))))))))))))))))))))))))))))))))))))))))))
)
